c 18 AngularJS
c 3 Maven
c 12 Server
c 35 PostgreSQL
c 36 False
c 16 Consul
c 22 MessageBroker
c 60 SearchEngine
c 7 MySql
c 51 MySQL
c 44 EhCache
c 2 Client
c 20 AuthenticationType
c 13 ServerSideOption
c 1 LibSass
c 28 HibernateCache
c 31 JWT
c 49 HTTPSession
c 11 SwaggerCodegen
c 5 SQL
c 10 ApplicationType
c 29 Angular4
c 39 Uaa
c 45 Oracle12c
c 34 MicroserviceApplication
c 50 MongoDB
c 38 NoDB
c 19 ClientFrameWork
c 56 MariaDBDev
c 25 Application
c 14 Cucumber
c 27 NoHB
c 47 H2InMemory
c 37 Gatling
c 52 Oauth2
c 55 SocialLogIn
c 46 Cassandra
c 53 H2DiskBased
c 24 ProDataBaseType
c 58 ClusteredHttpSession
c 32 MsSql
c 23 MsSQL
c 54 Oracle
c 6 DataBaseType
c 57 jhipster
c 17 ServiceDiscoveryType
c 9 MicroserviceGateway
c 30 MariaDB
c 41 WebSocket
c 43 Monolithic
c 8 DevDataBaseType
c 48 HazelCast
c 15 TestFramework
c 4 BuildTool
c 42 UaaServer
c 33 Protractor
c 59 PostgreSQLDev
c 21 Gradle
c 40 Infinispan
c 26 Eureka
p cnf 61 664
-1 2 0
-3 4 0
-5 6 0
-7 8 0
-9 10 0
-11 12 0
-6 13 0
-13 12 0
-14 15 0
-14 15 0
-16 17 0
-18 19 0
-20 13 0
-3 4 0
-16 17 0
-21 4 0
-22 12 0
-23 24 0
-21 4 0
-15 25 0
-16 17 0
-26 17 0
-27 28 0
-18 19 0
-26 17 0
-29 19 0
-30 24 0
-31 20 0
-27 28 0
-31 20 0
-15 25 0
-32 8 0
-33 15 0
-34 10 0
-4 13 0
-22 12 0
-35 24 0
-36 17 0
-37 15 0
-36 17 0
-38 6 0
-37 15 0
-27 28 0
-14 15 0
-39 20 0
-40 28 0
-32 8 0
-6 13 0
-37 15 0
-28 13 0
-39 20 0
-30 24 0
-41 12 0
-42 10 0
-43 10 0
-44 28 0
-30 24 0
-38 6 0
-45 8 0
-5 6 0
-46 6 0
-38 6 0
-47 8 0
-48 28 0
-36 17 0
-49 20 0
-4 13 0
-21 4 0
-46 6 0
-19 2 0
-36 17 0
-27 28 0
-31 20 0
-50 6 0
-50 6 0
-10 25 0
-8 13 0
-21 4 0
-26 17 0
-51 24 0
-20 13 0
-42 10 0
-34 10 0
-17 13 0
-34 10 0
-27 28 0
-21 4 0
-6 13 0
-3 4 0
-42 10 0
-43 10 0
-26 17 0
-13 12 0
-51 24 0
-52 20 0
-9 10 0
-26 17 0
-46 6 0
-6 13 0
-53 8 0
-16 17 0
-43 10 0
-30 24 0
-54 24 0
-47 8 0
-50 6 0
-20 13 0
-30 24 0
-24 13 0
-4 13 0
-52 20 0
-55 12 0
-5 6 0
-49 20 0
-19 2 0
-40 28 0
-37 15 0
-43 10 0
-6 13 0
-26 17 0
-47 8 0
-7 8 0
-38 6 0
-4 13 0
-7 8 0
-34 10 0
-14 15 0
-31 20 0
-52 20 0
-56 8 0
-48 28 0
-24 13 0
-34 10 0
-55 12 0
-4 13 0
-20 13 0
-51 24 0
-12 57 0
-11 12 0
-39 20 0
-50 6 0
-8 13 0
-16 17 0
-2 57 0
-31 20 0
-54 24 0
-48 28 0
-40 28 0
-27 28 0
-11 12 0
-48 28 0
-42 10 0
-20 13 0
-48 28 0
-52 20 0
-46 6 0
-32 8 0
-23 24 0
-40 28 0
-33 15 0
-8 13 0
-5 6 0
-38 6 0
-48 28 0
-53 8 0
-38 6 0
-58 12 0
-3 4 0
-36 17 0
-53 8 0
-27 28 0
-59 8 0
-48 28 0
-23 24 0
-46 6 0
-52 20 0
-52 20 0
-29 19 0
-32 8 0
-21 4 0
-16 17 0
-39 20 0
-40 28 0
-21 4 0
-28 13 0
-27 28 0
-32 8 0
-40 28 0
-40 28 0
-50 6 0
-14 15 0
-28 13 0
-38 6 0
-31 20 0
-56 8 0
-59 8 0
-31 20 0
-51 24 0
-53 8 0
-36 17 0
-35 24 0
-36 17 0
-45 8 0
-3 4 0
-16 17 0
-39 20 0
-47 8 0
-49 20 0
-16 17 0
-50 6 0
-50 6 0
-14 15 0
-46 6 0
-3 4 0
-3 4 0
-56 8 0
-48 28 0
-44 28 0
-48 28 0
-49 20 0
-54 24 0
-24 13 0
-36 17 0
-49 20 0
-17 13 0
-16 17 0
-32 8 0
-54 24 0
-21 4 0
-38 6 0
-40 28 0
-23 24 0
-42 10 0
-32 8 0
-58 12 0
-17 13 0
-17 13 0
-9 10 0
-31 20 0
-10 25 0
-36 17 0
-49 20 0
-28 13 0
-50 6 0
-21 4 0
-35 24 0
-5 6 0
-39 20 0
-27 28 0
-48 28 0
-3 4 0
-52 20 0
-58 12 0
-44 28 0
-40 28 0
-49 20 0
-52 20 0
-44 28 0
-5 6 0
-49 20 0
-45 8 0
-51 24 0
-40 28 0
-44 28 0
-56 8 0
-3 4 0
-46 6 0
-44 28 0
-27 28 0
-43 10 0
-50 6 0
-31 20 0
-49 20 0
-59 8 0
-40 28 0
-35 24 0
-6 13 0
-49 20 0
-44 28 0
-52 20 0
-11 12 0
-56 8 0
-9 10 0
-15 25 0
-56 8 0
-26 17 0
-17 13 0
-21 4 0
-21 4 0
-44 28 0
-10 25 0
-15 25 0
-38 6 0
-8 13 0
-26 17 0
-44 28 0
-23 24 0
-44 28 0
-13 12 0
-49 20 0
-17 13 0
-38 6 0
-20 13 0
-46 6 0
-31 20 0
-5 6 0
-54 24 0
-26 17 0
-48 28 0
-30 24 0
-34 10 0
-44 28 0
-39 20 0
-52 20 0
-39 20 0
-8 13 0
-38 6 0
-59 8 0
-40 28 0
-42 10 0
-47 8 0
-51 24 0
-50 6 0
-37 15 0
-30 24 0
-52 20 0
-36 17 0
-17 13 0
-43 10 0
-31 20 0
-8 13 0
-16 17 0
-52 20 0
-60 12 0
-16 17 0
-5 6 0
-33 15 0
-29 19 0
-33 15 0
-50 6 0
-33 15 0
-60 12 0
-27 28 0
-3 4 0
-3 4 0
-9 10 0
-21 4 0
-60 12 0
-34 10 0
-1 2 0
-40 28 0
-8 13 0
-3 4 0
-6 13 0
-2 57 0
-51 24 0
-35 24 0
-26 17 0
-21 4 0
-45 8 0
-42 10 0
-24 13 0
-46 6 0
-9 10 0
-41 12 0
-27 28 0
-8 13 0
-49 20 0
-52 20 0
-38 6 0
-45 8 0
-44 28 0
-24 13 0
-48 28 0
-36 17 0
-9 10 0
-43 10 0
-5 6 0
-3 4 0
-5 6 0
-31 20 0
-20 13 0
-23 24 0
-37 15 0
-31 20 0
-59 8 0
-10 25 0
-48 28 0
-41 12 0
-49 20 0
-5 6 0
-51 24 0
-28 13 0
-27 28 0
-39 20 0
-38 6 0
-16 17 0
-22 12 0
-27 28 0
-17 13 0
-54 24 0
-49 20 0
-36 17 0
-56 8 0
-39 20 0
-28 13 0
-59 8 0
-50 6 0
-39 20 0
-46 6 0
-4 13 0
-47 8 0
-26 17 0
-46 6 0
-22 12 0
-5 6 0
-54 24 0
-48 28 0
-46 6 0
-45 8 0
-44 28 0
-24 13 0
-47 8 0
-24 13 0
-5 6 0
-26 17 0
-13 12 0
-26 17 0
-55 12 0
-44 28 0
-34 10 0
-21 4 0
-25 57 0
-33 15 0
-3 4 0
-38 6 0
-5 6 0
-7 8 0
-44 28 0
-58 12 0
-23 24 0
-24 13 0
-16 17 0
-26 17 0
-35 24 0
-33 15 0
-16 17 0
-52 20 0
-52 20 0
-50 6 0
-60 12 0
-23 24 0
-53 8 0
-38 6 0
-39 20 0
-55 12 0
-59 8 0
-4 13 0
-44 28 0
-39 20 0
-14 15 0
-25 57 0
-14 15 0
-40 28 0
-5 6 0
-26 17 0
-39 20 0
-36 17 0
-50 6 0
-3 4 0
-40 28 0
-53 8 0
-12 57 0
-36 17 0
-27 28 0
-32 8 0
-46 6 0
-16 17 0
-38 6 0
-21 4 0
-27 28 0
-36 17 0
-18 19 0
-26 17 0
-31 20 0
-5 6 0
-3 4 0
-4 13 0
-7 8 0
-37 15 0
-40 28 0
-39 20 0
-35 24 0
-46 6 0
-18 19 0
-36 17 0
-47 8 0
-53 8 0
-56 8 0
-59 8 0
-31 20 0
-21 4 0
-45 8 0
-52 20 0
-33 15 0
-6 13 0
-50 6 0
-45 8 0
-53 8 0
-41 12 0
-16 17 0
-54 24 0
-35 24 0
-28 13 0
-7 8 0
-31 20 0
-50 6 0
-49 20 0
-37 15 0
-49 20 0
-7 8 0
-20 13 0
-39 20 0
-28 13 0
-29 19 0
-46 6 0
-48 28 0
-48 28 0
-43 10 0
-7 8 0
-30 24 0
-9 10 0
-42 10 0
-46 6 0
57 0
-10 9 43 34 42 0
-9 -43 0
-9 -34 0
-9 -42 0
-43 -34 0
-43 -42 0
-34 -42 0
-13 20 0
-13 4 0
-2 19 0
-13 17 0
-17 16 26 36 0
-26 -36 0
-16 -36 0
-16 -26 0
-6 5 38 46 50 0
-5 -38 0
-38 -46 0
-46 -50 0
-5 -46 0
-38 -50 0
-5 -50 0
-19 18 29 0
-18 -29 0
-25 10 0
-25 15 0
-13 6 0
-57 25 0
-8 45 47 59 56 32 7 53 0
-59 -56 0
-45 -47 0
-59 -53 0
-32 -53 0
-59 -7 0
-56 -32 0
-47 -7 0
-59 -32 0
-45 -53 0
-47 -32 0
-45 -59 0
-45 -56 0
-56 -53 0
-45 -32 0
-45 -7 0
-47 -53 0
-56 -7 0
-32 -7 0
-47 -59 0
-47 -56 0
-7 -53 0
-13 28 0
61 57 0
-12 13 0
-4 21 3 0
-21 -3 0
-28 40 27 48 44 0
-40 -27 0
-40 -48 0
-27 -48 0
-27 -44 0
-48 -44 0
-40 -44 0
-57 12 0
-24 51 23 54 30 35 0
-30 -35 0
-54 -35 0
-51 -30 0
-51 -35 0
-23 -54 0
-54 -30 0
-51 -23 0
-23 -30 0
-51 -54 0
-23 -35 0
-20 49 39 52 31 0
-52 -31 0
-49 -39 0
-39 -52 0
-39 -31 0
-49 -31 0
-49 -52 0
-5 -54 53 47 45 0
-5 -51 53 47 7 0
-50 9 27 0
-46 9 27 0
-38 27 0
-42 39 0
34 39 -38 0
34 9 -38 0
-43 36 26 0
5 -60 0
-5 -23 53 47 32 0
-5 -30 53 47 56 0
-9 48 0
-5 24 0
-52 5 50 0
-34 -2 0
-34 14 0
-34 37 0
-34 -33 0
-42 -2 0
-42 14 0
-42 37 0
-42 -33 0
-5 -35 53 47 59 0
-46 -55 0
43 -55 0
49 31 -55 0
-43 26 31 49 52 0
-9 31 39 0
-34 31 39 0
-50 -8 0
-50 -24 0
-46 -8 0
-46 -24 0
-38 -8 0
-38 -24 0
43 9 -58 0
27 48 -58 0
-26 39 31 0
-43 2 0
-43 14 0
-43 33 0
-43 37 0
-9 2 0
-9 14 0
-9 33 0
-9 37 0
43 9 -41 0
